c b=2,c=387
p cnf 13 27
1 2 -4 0
2 -5 0
1 2 -11 0
2 -12 0
1 -2 4 0
1 -2 5 0
1 -2 11 0
1 -2 12 0
1 -3 0
1 -6 0
1 -10 0
1 -13 0
-1 2 4 0
2 -6 0
-1 2 11 0
2 -13 0
-1 -2 -4 0
-1 -2 6 0
-1 -2 -11 0
-1 -2 13 0
-1 3 0
-1 -5 0
-1 10 0
-1 -12 0
-7 0
-8 0
-9 0
